solution status: time limit reached
objective value:                                  306
shell_i_$_224__5                                    1 	(obj:0)
shell_j_one.thingy.devices[0].thingy.vs1                    1 	(obj:0)
shell_i_$_232__5                                    1 	(obj:0)
shell_j_$_161__5                                    1 	(obj:0)
shell_j_one.ctrl_a[6].hole                          1 	(obj:0)
shell_i_one.ctrl_s[2].hole                          1 	(obj:0)
shell_j_$_163__5                                    1 	(obj:0)
shell_j_one.thingy.devices[2].thingy.circulate2                    1 	(obj:0)
shell_j_$_203__5                                    1 	(obj:0)
shell_j_$_183__5                                    1 	(obj:0)
shell_j_$_273__5                                    1 	(obj:0)
shell_i_one.thingy.devices[3].thingy.circulate2                    1 	(obj:0)
shell_j_$_165__5                                    1 	(obj:0)
shell_j_one.ctrl_a[5].flush                         1 	(obj:0)
shell_j_one.thingy.devices[3].thingy.vp4                    1 	(obj:0)
shell_i_$_54__5                                     1 	(obj:0)
shell_i_one.thingy.devices[1].thingy.circulate2                    1 	(obj:0)
shell_j_$_52__5                                     1 	(obj:0)
shell_j_$_227__5                                    1 	(obj:0)
shell_j_$_186__5                                    1 	(obj:0)
shell_j_$_243__5                                    1 	(obj:0)
shell_j_$_60__5                                     1 	(obj:0)
shell_j_$_150__5                                    1 	(obj:0)
shell_i_one.pump_a[2].hole                          1 	(obj:0)
shell_i_one.thingy.devices[0].thingy.vp1                    1 	(obj:0)
shell_i_$_39__5                                     1 	(obj:0)
shell_i_$_158__5                                    1 	(obj:0)
shell_j_$_252__5                                    1 	(obj:0)
shell_j_$_226__5                                    1 	(obj:0)
shell_j_$_170__5                                    1 	(obj:0)
shell_j_$_246__5                                    1 	(obj:0)
shell_i_one.thingy.devices[1].thingy.vp4                    1 	(obj:0)
shell_i_$_185__5                                    1 	(obj:0)
shell_j_$_268__5                                    1 	(obj:0)
shell_i_$_219__5                                    1 	(obj:0)
shell_j_$_167__5                                    1 	(obj:0)
shell_i_$_40__5                                     1 	(obj:0)
shell_i_$_209__5                                    1 	(obj:0)
shell_j_$_31__5                                     1 	(obj:0)
shell_i_one.ctrl_a[5].hole                          1 	(obj:0)
shell_i_$_245__5                                    1 	(obj:0)
shell_i_one.thingy.devices[1].thingy.vp1                    1 	(obj:0)
shell_j_$_195__5                                    1 	(obj:0)
shell_i_$_33__5                                     1 	(obj:0)
shell_j_one.ctrl_s[3].flush                         1 	(obj:0)
shell_j_$_238__5                                    1 	(obj:0)
shell_i_one.thingy.devices[2].thingy.vs1                    1 	(obj:0)
shell_j_$_254__5                                    1 	(obj:0)
shell_j_$_59__5                                     1 	(obj:0)
shell_j_one.ctrl_s[3].hole                          1 	(obj:0)
shell_j_$_255__5                                    1 	(obj:0)
shell_i_$_168__5                                    1 	(obj:0)
shell_j_$_244__5                                    1 	(obj:0)
shell_j_$_191__5                                    1 	(obj:0)
shell_j_$_236__5                                    1 	(obj:0)
shell_i_one.thingy.devices[0].thingy.vp4                    1 	(obj:0)
shell_j_$_37__5                                     1 	(obj:0)
shell_j_$_173__5                                    1 	(obj:0)
shell_j_$_64__5                                     1 	(obj:0)
shell_i_$_202__5                                    1 	(obj:0)
shell_i_$_178__5                                    1 	(obj:0)
shell_j_$_62__5                                     1 	(obj:0)
shell_j_one.ctrl_s[2].flush                         1 	(obj:0)
shell_i_one.thingy.devices[3].thingy.vs1                    1 	(obj:0)
shell_j_$_208__5                                    1 	(obj:0)
shell_j_$_32__5                                     1 	(obj:0)
shell_i_one.ctrl_a[6].flush                         1 	(obj:0)
shell_j_$_247__5                                    1 	(obj:0)
shell_i_$_164__5                                    1 	(obj:0)
shell_j_$_65__5                                     1 	(obj:0)
shell_i_$_34__5                                     1 	(obj:0)
shell_j_$_205__5                                    1 	(obj:0)
shell_j_$_214__5                                    1 	(obj:0)
shell_j_one.thingy.devices[2].thingy.vp1                    1 	(obj:0)
shell_i_$_63__5                                     1 	(obj:0)
shell_j_$_61__5                                     1 	(obj:0)
shell_j_$_260__5                                    1 	(obj:0)
shell_j_$_55__5                                     1 	(obj:0)
shell_j_one.pump_a[2].flush                         1 	(obj:0)
shell_j_$_249__5                                    1 	(obj:0)
shell_j_$_250__5                                    1 	(obj:0)
shell_j_$_213__5                                    1 	(obj:0)
shell_j_$_265__5                                    1 	(obj:0)
shell_i_$_211__5                                    1 	(obj:0)
shell_j_$_30__5                                     1 	(obj:0)
shell_j_$_154__5                                    1 	(obj:0)
shell_j_$_56__5                                     1 	(obj:0)
shell_i_$_38__5                                     1 	(obj:0)
shell_j_$_197__5                                    1 	(obj:0)
shell_j_$_267__5                                    1 	(obj:0)
shell_j_$_206__5                                    1 	(obj:0)
shell_j_$_204__5                                    1 	(obj:0)
shell_j_$_162__5                                    1 	(obj:0)
shell_j_$_240__5                                    1 	(obj:0)
shell_j_$_41__5                                     1 	(obj:0)
shell_j_$_42__5                                     1 	(obj:0)
shell_j_one.thingy.devices[0].thingy.circulate2                    1 	(obj:0)
shell_j_one.thingy.devices[3].thingy.vp1                    1 	(obj:0)
shell_j_$_53__5                                     1 	(obj:0)
shell_j_$_199__5                                    1 	(obj:0)
shell_j_$_156__5                                    1 	(obj:0)
shell_j_$_43__5                                     1 	(obj:0)
shell_i_one.thingy.devices[2].thingy.vp4                    1 	(obj:0)
shell_j_$_172__5                                    1 	(obj:0)
shell_j_one.thingy.devices[1].thingy.vs1                    1 	(obj:0)
$_195__5_x                                          6 	(obj:0)
$_195__5_y                                         -7 	(obj:0)
$_195__5_z                                        -21 	(obj:0)
$_232__5_z                                        -13 	(obj:0)
$_52__5_x                                           4 	(obj:0)
$_33__5_x                                           7 	(obj:0)
$_33__5_y                                          -7 	(obj:0)
$_33__5_z                                          10 	(obj:0)
$_52__5_y                                          -7 	(obj:0)
$_52__5_z                                          -8 	(obj:0)
one.ctrl_s[3].flush_x                               5 	(obj:0)
one.ctrl_s[3].flush_y                              -7 	(obj:0)
one.ctrl_s[3].flush_z                              -9 	(obj:0)
$_224__5_y                                         -6 	(obj:0)
one.thingy.devices[2].thingy.circulate2_x                    2 	(obj:0)
$_238__5_x                                          6 	(obj:0)
$_238__5_y                                         -7 	(obj:0)
$_238__5_z                                          8 	(obj:0)
$_227__5_x                                          6 	(obj:0)
$_227__5_y                                         -7 	(obj:0)
one.thingy.devices[2].thingy.vs1_x                    7 	(obj:0)
one.thingy.devices[2].thingy.vs1_y                   -3 	(obj:0)
one.thingy.devices[2].thingy.vs1_z                   -1 	(obj:0)
$_227__5_z                                         -9 	(obj:0)
one.thingy.devices[2].thingy.circulate2_y                   -7 	(obj:0)
$_254__5_x                                          4 	(obj:0)
$_254__5_y                                         -7 	(obj:0)
$_254__5_z                                         -2 	(obj:0)
one.thingy.devices[2].thingy.circulate2_z                   -1 	(obj:0)
$_186__5_x                                          3 	(obj:0)
$_59__5_x                                           2 	(obj:0)
$_59__5_y                                          -7 	(obj:0)
$_59__5_z                                           5 	(obj:0)
$_186__5_y                                         -7 	(obj:0)
$_186__5_z                                        -12 	(obj:0)
one.ctrl_s[3].hole_x                                5 	(obj:0)
one.ctrl_s[3].hole_y                               -7 	(obj:0)
one.ctrl_s[3].hole_z                               -8 	(obj:0)
one.thingy.devices[0].thingy.vs1_x                    5 	(obj:0)
$_161__5_x                                          4 	(obj:0)
$_255__5_y                                         -7 	(obj:0)
$_255__5_z                                         -3 	(obj:0)
$_243__5_x                                          6 	(obj:0)
$_243__5_y                                         -7 	(obj:0)
$_168__5_x                                          7 	(obj:0)
$_168__5_y                                         -5 	(obj:0)
$_168__5_z                                          1 	(obj:0)
$_243__5_z                                         -4 	(obj:0)
$_203__5_x                                          5 	(obj:0)
$_244__5_x                                          6 	(obj:0)
$_244__5_y                                         -7 	(obj:0)
$_244__5_z                                         -8 	(obj:0)
$_203__5_y                                         -7 	(obj:0)
$_60__5_x                                           3 	(obj:0)
$_191__5_x                                          4 	(obj:0)
$_191__5_y                                         -7 	(obj:0)
$_191__5_z                                        -12 	(obj:0)
$_60__5_y                                          -7 	(obj:0)
$_60__5_z                                           1 	(obj:0)
$_236__5_x                                          7 	(obj:0)
$_236__5_y                                         -7 	(obj:0)
$_236__5_z                                         -9 	(obj:0)
$_203__5_z                                        -20 	(obj:0)
$_161__5_y                                         -7 	(obj:0)
one.thingy.devices[0].thingy.vp4_x                    7 	(obj:0)
one.thingy.devices[0].thingy.vp4_y                   -2 	(obj:0)
one.thingy.devices[0].thingy.vp4_z                   -8 	(obj:0)
$_150__5_x                                          6 	(obj:0)
$_150__5_y                                         -7 	(obj:0)
$_37__5_x                                           3 	(obj:0)
$_37__5_y                                          -7 	(obj:0)
$_37__5_z                                          -1 	(obj:0)
$_150__5_z                                        -12 	(obj:0)
$_161__5_z                                         -7 	(obj:0)
$_173__5_x                                          1 	(obj:0)
$_173__5_y                                         -7 	(obj:0)
$_173__5_z                                         -3 	(obj:0)
$_183__5_x                                          6 	(obj:0)
one.pump_a[2].hole_x                                7 	(obj:0)
$_64__5_x                                           5 	(obj:0)
$_64__5_y                                          -7 	(obj:0)
$_64__5_z                                          -7 	(obj:0)
one.pump_a[2].hole_y                               -3 	(obj:0)
one.pump_a[2].hole_z                               -2 	(obj:0)
$_202__5_x                                          7 	(obj:0)
$_202__5_y                                         -7 	(obj:0)
$_202__5_z                                         -2 	(obj:0)
$_183__5_y                                         -7 	(obj:0)
$_183__5_z                                        -20 	(obj:0)
$_178__5_x                                          7 	(obj:0)
$_178__5_y                                         -4 	(obj:0)
$_178__5_z                                         -3 	(obj:0)
one.thingy.devices[0].thingy.vp1_x                    7 	(obj:0)
one.thingy.devices[0].thingy.vp1_y                   -3 	(obj:0)
$_62__5_x                                           5 	(obj:0)
$_62__5_y                                          -7 	(obj:0)
$_62__5_z                                          -5 	(obj:0)
one.thingy.devices[0].thingy.vp1_z                   -6 	(obj:0)
one.thingy.devices[0].thingy.vs1_y                   -7 	(obj:0)
one.ctrl_s[2].flush_x                               2 	(obj:0)
one.ctrl_s[2].flush_y                              -7 	(obj:0)
one.ctrl_s[2].flush_z                              -3 	(obj:0)
one.thingy.devices[0].thingy.vs1_z                   -2 	(obj:0)
$_39__5_x                                           7 	(obj:0)
one.thingy.devices[3].thingy.vs1_x                    7 	(obj:0)
one.thingy.devices[3].thingy.vs1_y                   -5 	(obj:0)
one.thingy.devices[3].thingy.vs1_z                    3 	(obj:0)
$_39__5_y                                          -5 	(obj:0)
$_39__5_z                                          -2 	(obj:0)
$_208__5_x                                          4 	(obj:0)
$_208__5_y                                         -7 	(obj:0)
$_208__5_z                                          1 	(obj:0)
$_273__5_x                                          6 	(obj:0)
$_273__5_y                                         -7 	(obj:0)
$_32__5_x                                           3 	(obj:0)
$_32__5_y                                          -7 	(obj:0)
$_32__5_z                                           5 	(obj:0)
$_158__5_x                                          7 	(obj:0)
$_158__5_y                                         -7 	(obj:0)
one.ctrl_a[6].flush_x                               7 	(obj:0)
one.ctrl_a[6].flush_y                              -7 	(obj:0)
one.ctrl_a[6].flush_z                               7 	(obj:0)
$_158__5_z                                         -4 	(obj:0)
$_273__5_z                                        -13 	(obj:0)
$_247__5_x                                          5 	(obj:0)
$_247__5_y                                         -7 	(obj:0)
$_247__5_z                                          1 	(obj:0)
one.ctrl_a[6].hole_x                                4 	(obj:0)
$_252__5_x                                          6 	(obj:0)
$_164__5_x                                          7 	(obj:0)
$_164__5_y                                         -7 	(obj:0)
$_164__5_z                                          8 	(obj:0)
$_252__5_y                                         -7 	(obj:0)
$_252__5_z                                          1 	(obj:0)
$_65__5_x                                           5 	(obj:0)
$_65__5_y                                          -7 	(obj:0)
$_65__5_z                                         -11 	(obj:0)
one.ctrl_a[6].hole_y                               -7 	(obj:0)
one.thingy.devices[3].thingy.circulate2_x                    7 	(obj:0)
$_34__5_x                                           7 	(obj:0)
$_34__5_y                                          -3 	(obj:0)
$_34__5_z                                           2 	(obj:0)
$_226__5_x                                          6 	(obj:0)
$_226__5_y                                         -7 	(obj:0)
$_205__5_x                                          3 	(obj:0)
$_205__5_y                                         -7 	(obj:0)
$_226__5_z                                         -7 	(obj:0)
one.thingy.devices[3].thingy.circulate2_y                   -7 	(obj:0)
$_214__5_x                                          6 	(obj:0)
$_214__5_y                                         -7 	(obj:0)
$_214__5_z                                        -11 	(obj:0)
one.thingy.devices[3].thingy.circulate2_z                    1 	(obj:0)
$_170__5_x                                          4 	(obj:0)
one.thingy.devices[2].thingy.vp1_x                    6 	(obj:0)
one.thingy.devices[2].thingy.vp1_y                   -7 	(obj:0)
one.thingy.devices[2].thingy.vp1_z                   -5 	(obj:0)
$_170__5_y                                         -7 	(obj:0)
$_170__5_z                                         -1 	(obj:0)
$_63__5_x                                           7 	(obj:0)
$_63__5_y                                          -7 	(obj:0)
$_63__5_z                                         -11 	(obj:0)
one.ctrl_a[6].hole_z                                2 	(obj:0)
$_224__5_z                                        -20 	(obj:0)
$_61__5_x                                           3 	(obj:0)
$_61__5_y                                          -7 	(obj:0)
$_61__5_z                                          -3 	(obj:0)
$_246__5_x                                          6 	(obj:0)
$_246__5_y                                         -7 	(obj:0)
$_260__5_x                                          5 	(obj:0)
$_260__5_y                                         -7 	(obj:0)
$_260__5_z                                         -1 	(obj:0)
$_246__5_z                                          6 	(obj:0)
$_165__5_x                                          4 	(obj:0)
$_55__5_x                                           5 	(obj:0)
$_55__5_y                                          -7 	(obj:0)
$_55__5_z                                           2 	(obj:0)
$_165__5_y                                         -7 	(obj:0)
one.thingy.devices[1].thingy.vp4_x                    7 	(obj:0)
one.pump_a[2].flush_x                               3 	(obj:0)
one.pump_a[2].flush_y                              -7 	(obj:0)
one.pump_a[2].flush_z                               3 	(obj:0)
one.thingy.devices[1].thingy.vp4_y                   -6 	(obj:0)
one.thingy.devices[1].thingy.vp4_z                   -9 	(obj:0)
$_249__5_x                                          4 	(obj:0)
$_249__5_y                                         -7 	(obj:0)
$_249__5_z                                          3 	(obj:0)
$_165__5_z                                          5 	(obj:0)
$_224__5_x                                          7 	(obj:0)
$_250__5_x                                          5 	(obj:0)
$_250__5_y                                         -7 	(obj:0)
$_250__5_z                                          3 	(obj:0)
$_185__5_x                                          7 	(obj:0)
$_185__5_y                                         -3 	(obj:0)
$_213__5_x                                          4 	(obj:0)
$_213__5_y                                         -7 	(obj:0)
$_185__5_z                                         -5 	(obj:0)
one.ctrl_s[2].hole_x                                7 	(obj:0)
$_265__5_x                                          7 	(obj:0)
$_265__5_y                                         -7 	(obj:0)
$_265__5_z                                        -19 	(obj:0)
one.ctrl_a[5].flush_x                               5 	(obj:0)
$_268__5_x                                          5 	(obj:0)
$_211__5_x                                          7 	(obj:0)
$_211__5_y                                         -5 	(obj:0)
$_211__5_z                                         -4 	(obj:0)
$_268__5_y                                         -7 	(obj:0)
$_268__5_z                                        -12 	(obj:0)
$_30__5_x                                           7 	(obj:0)
$_30__5_y                                          -7 	(obj:0)
$_30__5_z                                         -24 	(obj:0)
one.ctrl_a[5].flush_y                              -7 	(obj:0)
one.ctrl_a[5].flush_z                               5 	(obj:0)
$_154__5_x                                          7 	(obj:0)
$_154__5_y                                         -7 	(obj:0)
$_154__5_z                                        -12 	(obj:0)
$_219__5_x                                          7 	(obj:0)
$_219__5_y                                         -5 	(obj:0)
$_56__5_x                                           6 	(obj:0)
$_56__5_y                                          -7 	(obj:0)
$_56__5_z                                           2 	(obj:0)
$_219__5_z                                         -3 	(obj:0)
one.ctrl_s[2].hole_y                               -3 	(obj:0)
$_38__5_x                                           7 	(obj:0)
$_38__5_y                                          -3 	(obj:0)
$_38__5_z                                           3 	(obj:0)
one.ctrl_s[2].hole_z                               -9 	(obj:0)
$_167__5_x                                          5 	(obj:0)
$_197__5_x                                          6 	(obj:0)
$_197__5_y                                         -7 	(obj:0)
$_167__5_y                                         -7 	(obj:0)
$_267__5_x                                          4 	(obj:0)
$_267__5_y                                         -7 	(obj:0)
$_267__5_z                                         -3 	(obj:0)
one.thingy.devices[3].thingy.vp4_x                    5 	(obj:0)
one.thingy.devices[3].thingy.vp4_y                   -7 	(obj:0)
$_206__5_x                                          7 	(obj:0)
$_206__5_y                                         -7 	(obj:0)
$_206__5_z                                          5 	(obj:0)
$_40__5_x                                           7 	(obj:0)
$_40__5_y                                          -3 	(obj:0)
$_204__5_x                                          7 	(obj:0)
$_204__5_y                                         -7 	(obj:0)
$_204__5_z                                          9 	(obj:0)
$_40__5_z                                         -12 	(obj:0)
one.thingy.devices[3].thingy.vp4_z                   -3 	(obj:0)
$_162__5_x                                          7 	(obj:0)
$_162__5_y                                         -7 	(obj:0)
$_162__5_z                                        -21 	(obj:0)
$_232__5_x                                          7 	(obj:0)
$_209__5_x                                          7 	(obj:0)
$_240__5_x                                          7 	(obj:0)
$_240__5_y                                         -7 	(obj:0)
$_240__5_z                                         -5 	(obj:0)
$_209__5_y                                         -3 	(obj:0)
$_209__5_z                                          1 	(obj:0)
$_41__5_x                                           7 	(obj:0)
$_41__5_y                                          -7 	(obj:0)
$_232__5_y                                         -7 	(obj:0)
$_54__5_x                                           7 	(obj:0)
$_42__5_x                                           7 	(obj:0)
$_42__5_y                                          -7 	(obj:0)
$_42__5_z                                         -17 	(obj:0)
$_31__5_x                                           6 	(obj:0)
$_31__5_y                                          -7 	(obj:0)
one.thingy.devices[0].thingy.circulate2_x                    6 	(obj:0)
one.thingy.devices[0].thingy.circulate2_y                   -7 	(obj:0)
one.thingy.devices[0].thingy.circulate2_z                   -2 	(obj:0)
$_31__5_z                                          -1 	(obj:0)
$_54__5_y                                          -7 	(obj:0)
one.thingy.devices[3].thingy.vp1_x                    7 	(obj:0)
one.thingy.devices[3].thingy.vp1_y                   -7 	(obj:0)
one.thingy.devices[3].thingy.vp1_z                   -1 	(obj:0)
$_54__5_z                                          13 	(obj:0)
one.ctrl_a[5].hole_x                                7 	(obj:0)
$_53__5_x                                           6 	(obj:0)
$_53__5_y                                          -7 	(obj:0)
$_53__5_z                                           5 	(obj:0)
one.ctrl_a[5].hole_y                               -7 	(obj:0)
one.ctrl_a[5].hole_z                                2 	(obj:0)
$_199__5_x                                          7 	(obj:0)
$_199__5_y                                         -7 	(obj:0)
$_199__5_z                                         -8 	(obj:0)
$_163__5_x                                          6 	(obj:0)
$_163__5_y                                         -7 	(obj:0)
$_156__5_x                                          7 	(obj:0)
$_156__5_y                                         -7 	(obj:0)
$_156__5_z                                          6 	(obj:0)
$_245__5_x                                          7 	(obj:0)
$_245__5_y                                         -7 	(obj:0)
$_43__5_x                                           7 	(obj:0)
$_43__5_y                                          -7 	(obj:0)
$_43__5_z                                         -20 	(obj:0)
$_245__5_z                                          4 	(obj:0)
one.thingy.devices[1].thingy.circulate2_x                    7 	(obj:0)
one.thingy.devices[2].thingy.vp4_x                    7 	(obj:0)
one.thingy.devices[2].thingy.vp4_y                   -7 	(obj:0)
one.thingy.devices[2].thingy.vp4_z                   -7 	(obj:0)
one.thingy.devices[1].thingy.circulate2_y                   -7 	(obj:0)
one.thingy.devices[1].thingy.vp1_x                    7 	(obj:0)
$_172__5_x                                          7 	(obj:0)
$_172__5_y                                         -7 	(obj:0)
$_172__5_z                                          3 	(obj:0)
one.thingy.devices[1].thingy.vp1_y                   -5 	(obj:0)
one.thingy.devices[1].thingy.vp1_z                   -7 	(obj:0)
one.thingy.devices[1].thingy.vs1_x                    6 	(obj:0)
one.thingy.devices[1].thingy.vs1_y                   -7 	(obj:0)
one.thingy.devices[1].thingy.vs1_z                   -3 	(obj:0)
one.thingy.devices[1].thingy.circulate2_z                   -3 	(obj:0)
$_163__5_z                                          3 	(obj:0)
x527                                                1 	(obj:1)
x529                                                2 	(obj:1)
x534                                                2 	(obj:1)
x535                                                2 	(obj:1)
x537                                                1 	(obj:1)
x538                                                1 	(obj:1)
x544                                                1 	(obj:1)
x547                                                5 	(obj:1)
x550                                                2 	(obj:1)
x553                                                1 	(obj:1)
x556                                                1 	(obj:1)
x559                                                3 	(obj:1)
x562                                                1 	(obj:1)
x564                                                4 	(obj:1)
x567                                                3 	(obj:1)
x573                                                4 	(obj:1)
x577                                                3 	(obj:1)
x580                                                1 	(obj:1)
x582                                                4 	(obj:1)
x583                                                4 	(obj:1)
x585                                                2 	(obj:1)
x586                                                2 	(obj:1)
x588                                                3 	(obj:1)
x589                                                4 	(obj:1)
x592                                                1 	(obj:1)
x594                                                4 	(obj:1)
x597                                                1 	(obj:1)
x603                                                6 	(obj:1)
x606                                                6 	(obj:1)
x607                                                1 	(obj:1)
x609                                                4 	(obj:1)
x610                                                1 	(obj:1)
x612                                                2 	(obj:1)
x615                                                2 	(obj:1)
x616                                                1 	(obj:1)
x624                                                4 	(obj:1)
x630                                                4 	(obj:1)
x631                                                1 	(obj:1)
x652                                                1 	(obj:1)
x657                                                7 	(obj:1)
x661                                                2 	(obj:1)
x663                                                7 	(obj:1)
x665                                                4 	(obj:1)
x670                                                1 	(obj:1)
x672                                                6 	(obj:1)
x673                                                2 	(obj:1)
x675                                                4 	(obj:1)
x676                                                5 	(obj:1)
x678                                                4 	(obj:1)
x679                                                2 	(obj:1)
x680                                                2 	(obj:1)
x682                                                1 	(obj:1)
x685                                                3 	(obj:1)
x687                                                4 	(obj:1)
x690                                                7 	(obj:1)
x694                                                3 	(obj:1)
x696                                                2 	(obj:1)
x697                                                4 	(obj:1)
x699                                                6 	(obj:1)
x703                                                1 	(obj:1)
x705                                                7 	(obj:1)
x708                                                4 	(obj:1)
x712                                                5 	(obj:1)
x714                                                1 	(obj:1)
x715                                                4 	(obj:1)
x716                                                2 	(obj:1)
x717                                                1 	(obj:1)
x718                                                1 	(obj:1)
x721                                                2 	(obj:1)
x723                                                3 	(obj:1)
x724                                                1 	(obj:1)
x726                                                5 	(obj:1)
x727                                                1 	(obj:1)
x730                                                1 	(obj:1)
x732                                                7 	(obj:1)
x733                                                1 	(obj:1)
x738                                                1 	(obj:1)
x739                                                1 	(obj:1)
x751                                                3 	(obj:1)
x753                                                1 	(obj:1)
x754                                                2 	(obj:1)
x756                                                4 	(obj:1)
x757                                                2 	(obj:1)
x760                                                4 	(obj:1)
x762                                                5 	(obj:1)
x763                                                1 	(obj:1)
x769                                                3 	(obj:1)
x783                                                4 	(obj:1)
x789                                                6 	(obj:1)
x790                                                5 	(obj:1)
x793                                                2 	(obj:1)
x795                                                4 	(obj:1)
x796                                                2 	(obj:1)
x798                                                5 	(obj:1)
x801                                                5 	(obj:1)
x807                                                4 	(obj:1)
x810                                                6 	(obj:1)
x822                                                7 	(obj:1)
x825                                                4 	(obj:1)
x837                                                6 	(obj:1)
